36 26
20 743
2 104
1 70
7 258
16 930
11 298
18 356
6 149
20 939
7 2
6 69
10 803
17 642
9 281
8 437
17 516
1 124
1 911
7 660
3 390
19 375
22 484
2 204
18 140
21 202
12 220
14 221
15 761
7 222
25 2
8 814
3 924
1 957
1 890
23 853
1 82
